zaligvinder/models/all_counting_bench/automatarklen/automatark/instance7373.smt2
(set-logic QF_SLIA)
(set-option :produce-models true)
(declare-const X String)
; /\/AES\d+O\d+\.jsp\?[a-z0-9=\u{2b}\u{2f}]{20}/iU
(assert (not (str.in_re X (re.++ (str.to_re "//AES") (re.+ (re.range "0" "9")) (str.to_re "O") (re.+ (re.range "0" "9")) (str.to_re ".jsp?") ((_ re.loop 20 20) (re.union (re.range "a" "z") (re.range "0" "9") (str.to_re "=") (str.to_re "+") (str.to_re "/"))) (str.to_re "/iU\u{0a}")))))
; ([0-9]+\.[0-9]*)|([0-9]*\.[0-9]+)|([0-9]+)
(assert (str.in_re X (re.union (re.++ (re.+ (re.range "0" "9")) (str.to_re ".") (re.* (re.range "0" "9"))) (re.++ (re.* (re.range "0" "9")) (str.to_re ".") (re.+ (re.range "0" "9"))) (re.++ (re.+ (re.range "0" "9")) (str.to_re "\u{0a}")))))
; /\u{2e}wax([\?\u{5c}\u{2f}]|$)/smiU
(assert (str.in_re X (re.++ (str.to_re "/.wax") (re.union (str.to_re "?") (str.to_re "\u{5c}") (str.to_re "/")) (str.to_re "/smiU\u{0a}"))))
(assert (> (str.len X) 10))
(check-sat)
